% MIT License
%
% Copyright (c) 2021 Johan Ludde Wessén
%
% Permission is hereby granted, free of charge, to any person obtaining 
% a copy of this software and associated documentation files (the "Software"),
% to deal in the Software without restriction, including without limitation 
% the rights to use, copy, modify, merge, publish, distribute, sublicense, 
% and/or sell copies of the Software, and to permit persons to whom the 
% Software is furnished to do so, subject to the following conditions:
% 
% The above copyright notice and this permission notice shall be included 
% in all copies or substantial portions of the Software.
%
% THE SOFTWARE IS PROVIDED "AS IS", WITHOUT WARRANTY OF ANY KIND, 
% EXPRESS OR IMPLIED, INCLUDING BUT NOT LIMITED TO THE WARRANTIES OF
% MERCHANTABILITY, FITNESS FOR A PARTICULAR PURPOSE AND
% NONINFRINGEMENT. IN NO EVENT SHALL THE AUTHORS OR COPYRIGHT HOLDERS BE
% LIABLE FOR ANY CLAIM, DAMAGES OR OTHER LIABILITY, WHETHER IN AN ACTION
% OF CONTRACT, TORT OR OTHERWISE, ARISING FROM, OUT OF OR IN CONNECTION
% WITH THE SOFTWARE OR THE USE OR OTHER DEALINGS IN THE SOFTWARE.

%-----------------------------------------------------------------------------%
% Dual Arm Multi Capacity Multi Tool Scheduling / Routing
% Assembly Configuration
% Auto Generated by python script, authored by Johan Ludde Wessen 
%-----------------------------------------------------------------------------%


task_durations = [|28, 32, 28, 28, 25, 26, 25, 51, 53, 54, 43, 54, 50, 43, 26, 33, 25,  5,  6,  8,  7,  8,  5
                  |30, 30, 30, 34, 23, 30, 25, 57, 59, 50, 47, 52, 48, 51, 25, 29, 29,  6,  5,  7,  8,  7,  6
                  |];


TRAY_TASKS = 1..5;
CAMERA_TASKS = 15..17;
OUTPUT_TASKS = { 14 };


empty_gripper_tasks = 18..23;


gripper_pick_tasks_orders = [|1, 8, -1
|2, 9, -1
|6, 13, -1
|7, 14, -1
|];

suction_pick_tasks_orders = [|3, 15, 10, -1
|4, 16, 11, -1
|5, 17, 12, -1
|];

fixture_task_orders = [|8, 18, 10, 20, 11, 21, 6, -1
|12, 22, 9, 19, 13, 23, 7, -1
|];

